org.jcp.jsr331.tck.linear/results/KnapsackReal.sol
      0 Vi0                   0                      0
      1 Vi1                   0                      0
      2 Vi2                   0                      0
      3 Vr0                   0                      1
